c Random generated cnf formula, satisfiable: true
p cnf 10 50
-1 2 -10 0
-7 4 -2 0
7 -1 5 0
-8 -7 -4 0
-1 2 8 0
-1 7 3 0
-3 -9 5 0
-2 4 8 0
4 6 9 0
-10 8 -6 0
-4 3 2 0
-4 9 -10 0
-2 8 -10 0
9 -6 3 0
-9 -3 4 0
9 8 -3 0
5 -4 1 0
-8 10 -3 0
-7 5 10 0
-7 -1 -9 0
-6 7 5 0
9 -7 8 0
-8 -2 7 0
-6 9 5 0
3 -1 9 0
1 6 -3 0
5 -7 9 0
-3 5 -2 0
-5 8 2 0
3 -6 -10 0
-8 -2 5 0
1 -5 -10 0
-5 1 -7 0
-6 7 -5 0
2 4 1 0
-5 6 9 0
4 -6 -2 0
4 7 5 0
-3 -4 -7 0
-1 5 6 0
10 -6 -1 0
9 -3 4 0
-10 8 -9 0
1 -10 -4 0
8 2 -7 0
6 4 -2 0
-3 -1 -9 0
4 6 -8 0
-7 -2 -9 0
8 -6 3 0
